32      4       
10      10      10      10      
0       0       0       0       0       16      2       3       5       7       8       9       10      12      13      14      16      27      28      29      30      31      
9       1       1       1       0       3       4       24      26      
6       0       4       3       1       4       15      18      20      25      
5       2       5       0       1       1       6       
7       4       4       4       0       4       17      18      19      20      
6       2       4       5       0       2       11      18      
10      0       4       3       8       2       11      23      
7       0       3       4       4       2       15      22      
7       0       2       5       3       2       15      21      
6       4       0       6       1       1       11      
10      3       0       2       3       1       15      
2       0       4       6       6       1       15      
3       0       6       2       2       1       15      
2       7       4       3       0       1       15      
3       5       2       0       2       1       17      
5       1       4       0       5       1       19      
1       0       4       2       5       1       32      
7       3       4       2       0       1       32      
7       3       4       0       5       1       32      
8       10      0       2       3       1       32      
6       4       0       5       5       1       32      
5       4       0       3       7       1       32      
2       5       2       0       5       1       32      
10      0       3       4       2       1       32      
9       5       6       7       0       1       32      
7       0       8       3       3       1       32      
6       2       0       6       3       1       32      
7       8       5       5       0       1       32      
1       2       0       7       6       1       32      
7       5       0       7       4       1       32      
1       0       5       3       8       1       32      
0       0       0       0       0       0       
